NAME : PR123B.75389.tour
COMMENT : Cost = 0_75389
COMMENT : Found by LKH [Keld Helsgaun] Sun Sep 17 16:52:42 2017
TYPE : TOUR
DIMENSION : 123
TOUR_SECTION
1
8
2
4
5
32
31
30
34
33
35
29
28
27
7
26
25
22
20
41
42
44
45
46
47
48
49
50
51
15
14
13
12
11
10
9
16
17
52
53
54
43
18
19
21
40
39
23
24
38
37
55
56
57
58
60
62
63
64
68
69
73
78
79
80
92
93
94
95
96
97
99
100
123
122
98
117
118
119
120
121
116
115
114
101
91
85
90
103
104
105
106
107
108
109
110
111
112
113
102
89
88
87
86
67
83
84
82
81
77
76
75
74
72
71
70
65
66
61
59
36
6
3
-1
EOF
